784 1512
1 2 3
1 29 2
2 3 2
2 30 3
3 4 1
3 31 2
4 5 2
4 32 2
5 6 5
5 33 2
6 7 2
6 34 3
7 8 3
7 35 2
8 9 1
8 36 5
9 10 4
9 37 5
10 11 4
10 38 4
11 12 3
11 39 1
12 13 3
12 40 2
13 14 1
13 41 1
14 15 2
14 42 4
15 16 5
15 43 1
16 17 1
16 44 1
17 18 4
17 45 2
18 19 2
18 46 4
19 20 2
19 47 2
20 21 2
20 48 5
21 22 5
21 49 5
22 23 1
22 50 2
23 24 5
23 51 3
24 25 5
24 52 4
25 26 1
25 53 5
26 27 2
26 54 4
27 28 4
27 55 2
28 56 4
29 30 1
29 57 5
30 31 2
30 58 1
31 32 3
31 59 5
32 33 4
32 60 3
33 34 2
33 61 4
34 35 2
34 62 3
35 36 5
35 63 4
36 37 3
36 64 5
37 38 4
37 65 2
38 39 3
38 66 3
39 40 2
39 67 1
40 41 3
40 68 4
41 42 4
41 69 5
42 43 5
42 70 2
43 44 3
43 71 1
44 45 4
44 72 3
45 46 5
45 73 4
46 47 2
46 74 4
47 48 3
47 75 2
48 49 2
48 76 1
49 50 2
49 77 3
50 51 2
50 78 4
51 52 2
51 79 4
52 53 5
52 80 4
53 54 1
53 81 1
54 55 3
54 82 3
55 56 4
55 83 5
56 84 4
57 58 1
57 85 4
58 59 2
58 86 4
59 60 2
59 87 2
60 61 3
60 88 3
61 62 1
61 89 3
62 63 4
62 90 1
63 64 1
63 91 2
64 65 3
64 92 5
65 66 5
65 93 3
66 67 3
66 94 1
67 68 4
67 95 2
68 69 5
68 96 4
69 70 1
69 97 2
70 71 4
70 98 1
71 72 2
71 99 4
72 73 3
72 100 1
73 74 5
73 101 2
74 75 4
74 102 1
75 76 3
75 103 1
76 77 1
76 104 3
77 78 4
77 105 3
78 79 4
78 106 5
79 80 1
79 107 4
80 81 4
80 108 4
81 82 4
81 109 3
82 83 5
82 110 3
83 84 3
83 111 3
84 112 2
85 86 3
85 113 4
86 87 3
86 114 1
87 88 4
87 115 4
88 89 4
88 116 1
89 90 4
89 117 4
90 91 1
90 118 5
91 92 1
91 119 1
92 93 1
92 120 4
93 94 4
93 121 4
94 95 1
94 122 4
95 96 5
95 123 1
96 97 3
96 124 2
97 98 5
97 125 1
98 99 4
98 126 4
99 100 5
99 127 4
100 101 4
100 128 5
101 102 4
101 129 2
102 103 2
102 130 1
103 104 1
103 131 3
104 105 1
104 132 4
105 106 1
105 133 4
106 107 5
106 134 1
107 108 5
107 135 4
108 109 2
108 136 1
109 110 1
109 137 3
110 111 5
110 138 2
111 112 4
111 139 2
112 140 4
113 114 2
113 141 1
114 115 5
114 142 3
115 116 4
115 143 1
116 117 1
116 144 2
117 118 2
117 145 3
118 119 3
118 146 5
119 120 2
119 147 2
120 121 5
120 148 2
121 122 2
121 149 3
122 123 4
122 150 4
123 124 2
123 151 5
124 125 1
124 152 4
125 126 4
125 153 5
126 127 3
126 154 4
127 128 1
127 155 3
128 129 1
128 156 4
129 130 3
129 157 4
130 131 1
130 158 5
131 132 2
131 159 2
132 133 3
132 160 5
133 134 4
133 161 3
134 135 1
134 162 1
135 136 1
135 163 5
136 137 1
136 164 5
137 138 4
137 165 3
138 139 1
138 166 3
139 140 5
139 167 4
140 168 4
141 142 4
141 169 4
142 143 5
142 170 3
143 144 3
143 171 4
144 145 4
144 172 5
145 146 5
145 173 1
146 147 1
146 174 1
147 148 1
147 175 2
148 149 4
148 176 3
149 150 4
149 177 3
150 151 3
150 178 1
151 152 1
151 179 4
152 153 5
152 180 1
153 154 1
153 181 5
154 155 3
154 182 5
155 156 5
155 183 5
156 157 5
156 184 2
157 158 4
157 185 2
158 159 4
158 186 3
159 160 1
159 187 1
160 161 3
160 188 4
161 162 2
161 189 4
162 163 5
162 190 2
163 164 2
163 191 2
164 165 3
164 192 1
165 166 5
165 193 1
166 167 4
166 194 2
167 168 2
167 195 1
168 196 4
169 170 1
169 197 2
170 171 5
170 198 4
171 172 5
171 199 4
172 173 5
172 200 3
173 174 3
173 201 2
174 175 4
174 202 4
175 176 1
175 203 1
176 177 1
176 204 1
177 178 4
177 205 2
178 179 3
178 206 3
179 180 4
179 207 2
180 181 1
180 208 2
181 182 1
181 209 2
182 183 3
182 210 5
183 184 3
183 211 1
184 185 5
184 212 1
185 186 1
185 213 4
186 187 3
186 214 4
187 188 1
187 215 5
188 189 2
188 216 5
189 190 1
189 217 3
190 191 4
190 218 5
191 192 2
191 219 2
192 193 5
192 220 3
193 194 2
193 221 5
194 195 2
194 222 4
195 196 4
195 223 5
196 224 4
197 198 2
197 225 5
198 199 2
198 226 2
199 200 4
199 227 3
200 201 1
200 228 3
201 202 4
201 229 4
202 203 1
202 230 5
203 204 2
203 231 2
204 205 5
204 232 2
205 206 1
205 233 5
206 207 5
206 234 5
207 208 1
207 235 5
208 209 2
208 236 2
209 210 4
209 237 1
210 211 3
210 238 3
211 212 2
211 239 3
212 213 5
212 240 5
213 214 3
213 241 1
214 215 4
214 242 3
215 216 2
215 243 2
216 217 1
216 244 5
217 218 5
217 245 4
218 219 4
218 246 2
219 220 1
219 247 5
220 221 5
220 248 5
221 222 5
221 249 4
222 223 5
222 250 3
223 224 3
223 251 3
224 252 5
225 226 2
225 253 5
226 227 5
226 254 5
227 228 2
227 255 5
228 229 2
228 256 4
229 230 2
229 257 3
230 231 4
230 258 5
231 232 4
231 259 3
232 233 1
232 260 5
233 234 1
233 261 4
234 235 2
234 262 2
235 236 5
235 263 5
236 237 4
236 264 4
237 238 4
237 265 1
238 239 3
238 266 2
239 240 4
239 267 4
240 241 3
240 268 3
241 242 2
241 269 4
242 243 3
242 270 2
243 244 2
243 271 1
244 245 4
244 272 4
245 246 5
245 273 5
246 247 3
246 274 3
247 248 1
247 275 1
248 249 3
248 276 4
249 250 5
249 277 4
250 251 3
250 278 3
251 252 1
251 279 5
252 280 5
253 254 1
253 281 4
254 255 5
254 282 1
255 256 5
255 283 4
256 257 2
256 284 4
257 258 5
257 285 1
258 259 4
258 286 1
259 260 3
259 287 4
260 261 5
260 288 4
261 262 4
261 289 3
262 263 1
262 290 5
263 264 1
263 291 3
264 265 2
264 292 2
265 266 4
265 293 5
266 267 3
266 294 2
267 268 2
267 295 4
268 269 3
268 296 5
269 270 3
269 297 4
270 271 2
270 298 1
271 272 1
271 299 4
272 273 1
272 300 2
273 274 3
273 301 5
274 275 4
274 302 1
275 276 4
275 303 4
276 277 4
276 304 5
277 278 1
277 305 1
278 279 4
278 306 4
279 280 2
279 307 3
280 308 4
281 282 2
281 309 5
282 283 1
282 310 1
283 284 3
283 311 5
284 285 1
284 312 1
285 286 2
285 313 5
286 287 1
286 314 5
287 288 3
287 315 4
288 289 1
288 316 1
289 290 1
289 317 1
290 291 1
290 318 2
291 292 5
291 319 2
292 293 1
292 320 3
293 294 1
293 321 3
294 295 4
294 322 3
295 296 2
295 323 2
296 297 3
296 324 1
297 298 3
297 325 1
298 299 2
298 326 5
299 300 3
299 327 3
300 301 3
300 328 1
301 302 3
301 329 4
302 303 1
302 330 1
303 304 3
303 331 3
304 305 4
304 332 2
305 306 2
305 333 4
306 307 1
306 334 3
307 308 2
307 335 2
308 336 2
309 310 3
309 337 4
310 311 3
310 338 2
311 312 3
311 339 2
312 313 1
312 340 3
313 314 3
313 341 1
314 315 5
314 342 5
315 316 4
315 343 3
316 317 4
316 344 4
317 318 3
317 345 1
318 319 5
318 346 4
319 320 2
319 347 4
320 321 1
320 348 5
321 322 2
321 349 1
322 323 3
322 350 4
323 324 3
323 351 1
324 325 3
324 352 3
325 326 1
325 353 1
326 327 5
326 354 1
327 328 3
327 355 5
328 329 2
328 356 4
329 330 5
329 357 1
330 331 5
330 358 2
331 332 2
331 359 3
332 333 1
332 360 5
333 334 2
333 361 2
334 335 5
334 362 1
335 336 2
335 363 2
336 364 5
337 338 2
337 365 1
338 339 4
338 366 5
339 340 4
339 367 5
340 341 2
340 368 5
341 342 3
341 369 2
342 343 4
342 370 5
343 344 5
343 371 2
344 345 5
344 372 4
345 346 5
345 373 3
346 347 3
346 374 1
347 348 1
347 375 3
348 349 4
348 376 5
349 350 3
349 377 5
350 351 5
350 378 5
351 352 5
351 379 2
352 353 4
352 380 1
353 354 3
353 381 3
354 355 2
354 382 1
355 356 4
355 383 4
356 357 3
356 384 2
357 358 3
357 385 3
358 359 1
358 386 5
359 360 4
359 387 5
360 361 5
360 388 4
361 362 1
361 389 4
362 363 3
362 390 1
363 364 5
363 391 3
364 392 2
365 366 2
365 393 4
366 367 4
366 394 4
367 368 3
367 395 4
368 369 1
368 396 3
369 370 1
369 397 2
370 371 1
370 398 5
371 372 1
371 399 1
372 373 3
372 400 3
373 374 1
373 401 2
374 375 5
374 402 2
375 376 3
375 403 1
376 377 4
376 404 4
377 378 1
377 405 5
378 379 5
378 406 4
379 380 5
379 407 1
380 381 5
380 408 1
381 382 5
381 409 4
382 383 2
382 410 1
383 384 1
383 411 1
384 385 5
384 412 2
385 386 3
385 413 2
386 387 5
386 414 4
387 388 2
387 415 1
388 389 1
388 416 3
389 390 5
389 417 4
390 391 2
390 418 2
391 392 3
391 419 1
392 420 4
393 394 4
393 421 2
394 395 5
394 422 3
395 396 1
395 423 3
396 397 5
396 424 2
397 398 4
397 425 1
398 399 2
398 426 4
399 400 3
399 427 2
400 401 3
400 428 5
401 402 1
401 429 4
402 403 4
402 430 4
403 404 1
403 431 5
404 405 5
404 432 1
405 406 5
405 433 1
406 407 1
406 434 1
407 408 4
407 435 2
408 409 5
408 436 2
409 410 4
409 437 1
410 411 2
410 438 1
411 412 5
411 439 4
412 413 5
412 440 1
413 414 1
413 441 2
414 415 5
414 442 3
415 416 3
415 443 1
416 417 5
416 444 3
417 418 5
417 445 3
418 419 1
418 446 4
419 420 5
419 447 5
420 448 5
421 422 3
421 449 5
422 423 1
422 450 3
423 424 2
423 451 1
424 425 3
424 452 5
425 426 3
425 453 5
426 427 4
426 454 4
427 428 3
427 455 3
428 429 5
428 456 5
429 430 5
429 457 1
430 431 2
430 458 5
431 432 5
431 459 2
432 433 2
432 460 2
433 434 1
433 461 3
434 435 2
434 462 3
435 436 1
435 463 1
436 437 2
436 464 3
437 438 2
437 465 1
438 439 1
438 466 4
439 440 1
439 467 3
440 441 3
440 468 5
441 442 2
441 469 3
442 443 2
442 470 5
443 444 1
443 471 5
444 445 4
444 472 4
445 446 3
445 473 2
446 447 4
446 474 3
447 448 3
447 475 3
448 476 5
449 450 1
449 477 5
450 451 1
450 478 1
451 452 2
451 479 4
452 453 3
452 480 2
453 454 1
453 481 3
454 455 3
454 482 2
455 456 4
455 483 4
456 457 4
456 484 2
457 458 3
457 485 2
458 459 3
458 486 3
459 460 4
459 487 1
460 461 2
460 488 5
461 462 5
461 489 5
462 463 2
462 490 5
463 464 5
463 491 1
464 465 5
464 492 4
465 466 5
465 493 4
466 467 2
466 494 1
467 468 4
467 495 5
468 469 5
468 496 4
469 470 1
469 497 5
470 471 4
470 498 3
471 472 3
471 499 3
472 473 3
472 500 1
473 474 3
473 501 5
474 475 2
474 502 4
475 476 3
475 503 1
476 504 3
477 478 3
477 505 4
478 479 2
478 506 4
479 480 4
479 507 2
480 481 4
480 508 5
481 482 4
481 509 1
482 483 3
482 510 4
483 484 5
483 511 2
484 485 4
484 512 5
485 486 4
485 513 1
486 487 5
486 514 4
487 488 4
487 515 2
488 489 3
488 516 3
489 490 3
489 517 4
490 491 1
490 518 3
491 492 3
491 519 5
492 493 3
492 520 4
493 494 5
493 521 4
494 495 5
494 522 3
495 496 1
495 523 3
496 497 5
496 524 4
497 498 3
497 525 4
498 499 3
498 526 4
499 500 5
499 527 3
500 501 5
500 528 4
501 502 2
501 529 3
502 503 4
502 530 3
503 504 3
503 531 2
504 532 5
505 506 1
505 533 2
506 507 4
506 534 5
507 508 2
507 535 5
508 509 1
508 536 3
509 510 2
509 537 1
510 511 1
510 538 1
511 512 4
511 539 3
512 513 3
512 540 3
513 514 4
513 541 1
514 515 4
514 542 2
515 516 4
515 543 4
516 517 5
516 544 1
517 518 5
517 545 2
518 519 1
518 546 3
519 520 2
519 547 5
520 521 3
520 548 2
521 522 4
521 549 1
522 523 1
522 550 4
523 524 4
523 551 3
524 525 4
524 552 4
525 526 4
525 553 2
526 527 1
526 554 3
527 528 1
527 555 3
528 529 4
528 556 5
529 530 4
529 557 3
530 531 1
530 558 5
531 532 3
531 559 3
532 560 1
533 534 3
533 561 5
534 535 3
534 562 5
535 536 3
535 563 4
536 537 5
536 564 2
537 538 2
537 565 2
538 539 2
538 566 1
539 540 1
539 567 5
540 541 5
540 568 2
541 542 3
541 569 3
542 543 5
542 570 1
543 544 3
543 571 2
544 545 2
544 572 4
545 546 4
545 573 3
546 547 4
546 574 2
547 548 3
547 575 1
548 549 5
548 576 1
549 550 5
549 577 1
550 551 1
550 578 5
551 552 1
551 579 2
552 553 4
552 580 3
553 554 5
553 581 2
554 555 5
554 582 3
555 556 3
555 583 2
556 557 4
556 584 3
557 558 2
557 585 3
558 559 2
558 586 3
559 560 3
559 587 2
560 588 1
561 562 3
561 589 2
562 563 5
562 590 1
563 564 3
563 591 3
564 565 1
564 592 3
565 566 5
565 593 5
566 567 1
566 594 4
567 568 3
567 595 1
568 569 3
568 596 3
569 570 3
569 597 4
570 571 1
570 598 1
571 572 4
571 599 1
572 573 5
572 600 3
573 574 3
573 601 2
574 575 5
574 602 4
575 576 3
575 603 4
576 577 5
576 604 1
577 578 1
577 605 1
578 579 4
578 606 1
579 580 1
579 607 4
580 581 2
580 608 1
581 582 2
581 609 5
582 583 3
582 610 3
583 584 5
583 611 2
584 585 4
584 612 3
585 586 4
585 613 1
586 587 5
586 614 2
587 588 3
587 615 3
588 616 3
589 590 4
589 617 2
590 591 3
590 618 3
591 592 3
591 619 3
592 593 1
592 620 4
593 594 2
593 621 1
594 595 1
594 622 1
595 596 1
595 623 4
596 597 4
596 624 5
597 598 3
597 625 2
598 599 1
598 626 3
599 600 2
599 627 5
600 601 2
600 628 5
601 602 2
601 629 5
602 603 5
602 630 4
603 604 4
603 631 1
604 605 3
604 632 3
605 606 5
605 633 5
606 607 2
606 634 1
607 608 5
607 635 5
608 609 5
608 636 2
609 610 4
609 637 5
610 611 2
610 638 5
611 612 3
611 639 1
612 613 5
612 640 3
613 614 5
613 641 4
614 615 3
614 642 3
615 616 4
615 643 2
616 644 3
617 618 3
617 645 4
618 619 4
618 646 5
619 620 1
619 647 1
620 621 2
620 648 4
621 622 2
621 649 5
622 623 2
622 650 2
623 624 3
623 651 3
624 625 4
624 652 1
625 626 2
625 653 1
626 627 1
626 654 5
627 628 3
627 655 4
628 629 3
628 656 2
629 630 3
629 657 1
630 631 4
630 658 2
631 632 4
631 659 1
632 633 1
632 660 3
633 634 1
633 661 5
634 635 4
634 662 2
635 636 1
635 663 1
636 637 5
636 664 4
637 638 4
637 665 1
638 639 3
638 666 2
639 640 1
639 667 5
640 641 2
640 668 3
641 642 2
641 669 5
642 643 2
642 670 4
643 644 4
643 671 2
644 672 1
645 646 1
645 673 4
646 647 2
646 674 2
647 648 3
647 675 1
648 649 2
648 676 5
649 650 1
649 677 2
650 651 4
650 678 1
651 652 2
651 679 4
652 653 4
652 680 2
653 654 1
653 681 3
654 655 5
654 682 3
655 656 1
655 683 3
656 657 3
656 684 5
657 658 2
657 685 3
658 659 1
658 686 5
659 660 2
659 687 1
660 661 4
660 688 2
661 662 1
661 689 4
662 663 1
662 690 1
663 664 2
663 691 2
664 665 1
664 692 3
665 666 5
665 693 1
666 667 3
666 694 4
667 668 1
667 695 4
668 669 4
668 696 2
669 670 4
669 697 2
670 671 2
670 698 1
671 672 5
671 699 2
672 700 2
673 674 2
673 701 3
674 675 3
674 702 1
675 676 4
675 703 4
676 677 3
676 704 2
677 678 1
677 705 5
678 679 2
678 706 4
679 680 4
679 707 5
680 681 5
680 708 4
681 682 1
681 709 3
682 683 2
682 710 3
683 684 5
683 711 5
684 685 5
684 712 5
685 686 5
685 713 5
686 687 4
686 714 5
687 688 4
687 715 4
688 689 3
688 716 2
689 690 1
689 717 3
690 691 1
690 718 2
691 692 5
691 719 2
692 693 2
692 720 1
693 694 5
693 721 4
694 695 4
694 722 3
695 696 5
695 723 3
696 697 1
696 724 4
697 698 4
697 725 1
698 699 2
698 726 3
699 700 1
699 727 2
700 728 1
701 702 1
701 729 4
702 703 4
702 730 3
703 704 2
703 731 1
704 705 5
704 732 2
705 706 4
705 733 3
706 707 2
706 734 1
707 708 4
707 735 4
708 709 4
708 736 5
709 710 3
709 737 4
710 711 2
710 738 2
711 712 5
711 739 2
712 713 1
712 740 5
713 714 4
713 741 4
714 715 4
714 742 3
715 716 5
715 743 5
716 717 1
716 744 4
717 718 5
717 745 1
718 719 4
718 746 1
719 720 3
719 747 5
720 721 1
720 748 1
721 722 5
721 749 5
722 723 1
722 750 4
723 724 5
723 751 3
724 725 2
724 752 2
725 726 3
725 753 4
726 727 4
726 754 5
727 728 1
727 755 4
728 756 3
729 730 1
729 757 4
730 731 2
730 758 5
731 732 3
731 759 2
732 733 1
732 760 2
733 734 5
733 761 5
734 735 5
734 762 4
735 736 2
735 763 2
736 737 5
736 764 1
737 738 4
737 765 2
738 739 5
738 766 2
739 740 5
739 767 5
740 741 3
740 768 3
741 742 5
741 769 2
742 743 3
742 770 2
743 744 1
743 771 4
744 745 1
744 772 4
745 746 2
745 773 4
746 747 4
746 774 4
747 748 1
747 775 3
748 749 2
748 776 4
749 750 2
749 777 1
750 751 2
750 778 5
751 752 1
751 779 4
752 753 3
752 780 5
753 754 1
753 781 5
754 755 1
754 782 3
755 756 3
755 783 2
756 784 5
757 758 3
758 759 5
759 760 1
760 761 2
761 762 5
762 763 3
763 764 1
764 765 3
765 766 1
766 767 2
767 768 4
768 769 3
769 770 5
770 771 3
771 772 5
772 773 2
773 774 4
774 775 1
775 776 1
776 777 3
777 778 2
778 779 4
779 780 3
780 781 4
781 782 4
782 783 1
783 784 2
